<?xml version = "1.0" standalone="yes"?>
<!-- This file has been generated by DOcplex version 2.23.222  -->
<CPLEXSolution version="1.0">
 <header
   problemName="CVRP"
   objectiveValue="10369"
  />
 <variables>
  <variable name="x_0_1" index="0" value="1.00000"/>
  <variable name="x_0_2" index="1" value="1.00000"/>
  <variable name="x_0_5" index="4" value="1.00000"/>
  <variable name="x_0_6" index="5" value="1.00000"/>
  <variable name="x_0_9" index="8" value="1.00000"/>
  <variable name="x_0_12" index="11" value="1.00000"/>
  <variable name="x_0_13" index="12" value="1.00000"/>
  <variable name="x_0_14" index="13" value="1.00000"/>
  <variable name="x_0_18" index="17" value="1.00000"/>
  <variable name="x_1_11" index="28" value="1.00000"/>
  <variable name="x_2_17" index="52" value="1.00000"/>
  <variable name="x_3_16" index="69" value="1.00000"/>
  <variable name="x_4_10" index="81" value="1.00000"/>
  <variable name="x_5_0" index="90" value="1.00000"/>
  <variable name="x_6_0" index="108" value="1.00000"/>
  <variable name="x_7_0" index="126" value="1.00000"/>
  <variable name="x_8_0" index="144" value="1.00000"/>
  <variable name="x_9_7" index="169" value="1.00000"/>
  <variable name="x_10_0" index="180" value="1.00000"/>
  <variable name="x_11_8" index="206" value="1.00000"/>
  <variable name="x_12_15" index="230" value="1.00000"/>
  <variable name="x_13_0" index="234" value="1.00000"/>
  <variable name="x_14_4" index="256" value="1.00000"/>
  <variable name="x_15_3" index="273" value="1.00000"/>
  <variable name="x_16_0" index="288" value="1.00000"/>
  <variable name="x_17_0" index="306" value="1.00000"/>
  <variable name="x_18_0" index="324" value="1.00000"/>
  <variable name="u_1" index="342" value="50.00000"/>
  <variable name="u_2" index="343" value="51.00000"/>
  <variable name="u_3" index="344" value="42.00000"/>
  <variable name="u_4" index="345" value="23.00000"/>
  <variable name="u_5" index="346" value="65.00000"/>
  <variable name="u_6" index="347" value="65.00000"/>
  <variable name="u_7" index="348" value="65.00000"/>
  <variable name="u_8" index="349" value="65.00000"/>
  <variable name="u_9" index="350" value="24.00000"/>
  <variable name="u_10" index="351" value="55.00000"/>
  <variable name="u_11" index="352" value="58.00000"/>
  <variable name="u_12" index="353" value="23.00000"/>
  <variable name="u_13" index="354" value="60.00000"/>
  <variable name="u_14" index="355" value="13.00000"/>
  <variable name="u_15" index="356" value="36.00000"/>
  <variable name="u_16" index="357" value="55.00000"/>
  <variable name="u_17" index="358" value="65.00000"/>
  <variable name="u_18" index="359" value="60.00000"/>
 </variables>
</CPLEXSolution>
